benchmarks_CP/INST_36x36/30/inst36x36_30_89.dzn
S=6;
start=[|
-1,	-1,	-1,	-1,	34,	-1,	-1,	-1,	30,	1,	36,	-1,	-1,	-1,	17,	8,	-1,	-1,	-1,	-1,	-1,	-1,	13,	-1,	-1,	-1,	19,	-1,	-1,	-1,	-1,	-1,	-1,	-1,	10,	12|
-1,	-1,	-1,	30,	-1,	21,	8,	-1,	-1,	20,	28,	-1,	-1,	-1,	-1,	-1,	-1,	-1,	-1,	26,	36,	-1,	11,	-1,	-1,	-1,	9,	10,	-1,	-1,	-1,	22,	1,	-1,	-1,	-1|
7,	19,	-1,	8,	17,	-1,	-1,	-1,	32,	14,	-1,	-1,	-1,	10,	34,	-1,	27,	-1,	-1,	-1,	-1,	-1,	-1,	-1,	-1,	-1,	36,	6,	12,	-1,	24,	15,	31,	-1,	-1,	-1|
-1,	15,	-1,	2,	24,	-1,	-1,	-1,	-1,	3,	6,	-1,	36,	-1,	31,	-1,	-1,	-1,	-1,	32,	8,	-1,	-1,	-1,	17,	-1,	-1,	-1,	-1,	-1,	-1,	13,	-1,	-1,	-1,	-1|
-1,	-1,	-1,	-1,	-1,	16,	-1,	-1,	-1,	33,	-1,	21,	-1,	-1,	-1,	-1,	-1,	-1,	-1,	6,	-1,	-1,	-1,	28,	-1,	-1,	-1,	3,	-1,	-1,	-1,	-1,	-1,	-1,	29,	-1|
-1,	-1,	3,	31,	-1,	1,	-1,	-1,	-1,	-1,	-1,	-1,	-1,	13,	28,	6,	-1,	-1,	-1,	-1,	-1,	-1,	16,	9,	-1,	-1,	-1,	-1,	24,	-1,	34,	-1,	-1,	33,	25,	-1|
-1,	-1,	-1,	-1,	-1,	-1,	-1,	34,	-1,	-1,	4,	-1,	31,	-1,	-1,	-1,	17,	-1,	13,	-1,	24,	-1,	30,	-1,	-1,	-1,	-1,	-1,	-1,	-1,	-1,	-1,	-1,	-1,	-1,	-1|
-1,	-1,	-1,	-1,	30,	15,	23,	-1,	-1,	-1,	-1,	-1,	-1,	5,	-1,	-1,	-1,	-1,	16,	19,	-1,	31,	-1,	-1,	35,	-1,	2,	-1,	-1,	-1,	-1,	28,	-1,	13,	-1,	9|
8,	17,	-1,	-1,	7,	12,	-1,	-1,	-1,	27,	-1,	24,	-1,	-1,	-1,	19,	-1,	-1,	-1,	28,	6,	-1,	-1,	20,	-1,	-1,	29,	33,	32,	-1,	35,	-1,	-1,	30,	-1,	-1|
9,	24,	-1,	-1,	-1,	-1,	-1,	-1,	-1,	-1,	-1,	-1,	29,	-1,	36,	-1,	-1,	1,	4,	-1,	-1,	-1,	-1,	7,	-1,	-1,	-1,	16,	-1,	-1,	-1,	-1,	-1,	34,	-1,	-1|
-1,	-1,	-1,	-1,	-1,	4,	-1,	-1,	-1,	6,	-1,	-1,	-1,	-1,	9,	26,	-1,	-1,	-1,	-1,	-1,	-1,	27,	-1,	-1,	-1,	-1,	13,	14,	-1,	23,	-1,	-1,	-1,	7,	33|
36,	-1,	-1,	28,	-1,	31,	33,	26,	-1,	-1,	-1,	35,	-1,	-1,	-1,	7,	13,	-1,	-1,	-1,	-1,	-1,	-1,	-1,	6,	-1,	-1,	-1,	-1,	-1,	4,	-1,	-1,	-1,	-1,	-1|
23,	14,	-1,	-1,	28,	-1,	-1,	-1,	22,	-1,	-1,	13,	33,	-1,	-1,	9,	-1,	-1,	-1,	-1,	20,	-1,	-1,	-1,	31,	-1,	35,	12,	-1,	-1,	-1,	21,	-1,	-1,	36,	24|
-1,	-1,	-1,	-1,	-1,	-1,	7,	-1,	-1,	-1,	10,	9,	-1,	-1,	-1,	-1,	-1,	-1,	-1,	2,	-1,	33,	-1,	-1,	-1,	-1,	-1,	-1,	-1,	-1,	-1,	-1,	-1,	18,	11,	16|
-1,	-1,	-1,	-1,	15,	-1,	-1,	-1,	-1,	-1,	-1,	-1,	-1,	19,	-1,	-1,	-1,	35,	-1,	27,	16,	-1,	-1,	-1,	-1,	-1,	11,	9,	-1,	-1,	-1,	-1,	12,	23,	4,	-1|
24,	-1,	-1,	-1,	21,	-1,	-1,	-1,	-1,	-1,	16,	26,	-1,	-1,	-1,	-1,	-1,	18,	-1,	7,	-1,	23,	-1,	-1,	-1,	-1,	-1,	2,	-1,	-1,	-1,	20,	-1,	9,	19,	31|
-1,	31,	-1,	29,	-1,	-1,	-1,	-1,	-1,	-1,	-1,	-1,	-1,	-1,	-1,	2,	7,	11,	-1,	13,	-1,	-1,	-1,	-1,	36,	-1,	6,	-1,	-1,	-1,	30,	8,	-1,	14,	-1,	-1|
-1,	-1,	-1,	-1,	33,	-1,	28,	35,	-1,	4,	-1,	-1,	-1,	-1,	-1,	5,	-1,	-1,	-1,	-1,	3,	9,	-1,	-1,	23,	-1,	-1,	-1,	-1,	34,	-1,	1,	-1,	-1,	-1,	10|
-1,	34,	-1,	-1,	-1,	-1,	-1,	-1,	-1,	-1,	-1,	-1,	-1,	-1,	-1,	-1,	-1,	-1,	-1,	-1,	-1,	-1,	14,	-1,	-1,	4,	32,	7,	-1,	-1,	-1,	-1,	22,	-1,	5,	27|
-1,	-1,	32,	15,	14,	-1,	-1,	18,	-1,	-1,	30,	-1,	-1,	-1,	7,	11,	-1,	-1,	9,	-1,	-1,	34,	19,	29,	-1,	-1,	-1,	-1,	27,	24,	-1,	-1,	-1,	31,	-1,	-1|
21,	33,	24,	4,	-1,	8,	20,	-1,	-1,	-1,	25,	22,	-1,	-1,	-1,	-1,	-1,	-1,	-1,	11,	31,	7,	-1,	36,	2,	-1,	-1,	-1,	13,	-1,	-1,	-1,	-1,	-1,	-1,	6|
-1,	-1,	11,	-1,	-1,	-1,	-1,	-1,	28,	-1,	-1,	-1,	20,	17,	-1,	24,	-1,	-1,	21,	-1,	13,	-1,	26,	-1,	-1,	-1,	-1,	14,	-1,	6,	-1,	32,	-1,	4,	-1,	-1|
-1,	30,	-1,	-1,	36,	-1,	27,	-1,	4,	-1,	-1,	-1,	-1,	-1,	-1,	-1,	-1,	-1,	-1,	-1,	25,	24,	20,	-1,	-1,	-1,	-1,	22,	-1,	-1,	-1,	-1,	-1,	-1,	-1,	35|
-1,	-1,	-1,	-1,	10,	-1,	13,	-1,	-1,	16,	24,	-1,	-1,	-1,	2,	-1,	-1,	-1,	15,	-1,	-1,	-1,	3,	-1,	-1,	11,	-1,	35,	-1,	-1,	-1,	14,	-1,	26,	-1,	28|
5,	-1,	12,	-1,	25,	27,	-1,	-1,	-1,	22,	-1,	-1,	-1,	-1,	-1,	-1,	-1,	-1,	-1,	-1,	-1,	13,	-1,	-1,	-1,	35,	17,	-1,	-1,	-1,	2,	-1,	-1,	6,	8,	-1|
-1,	11,	-1,	-1,	-1,	-1,	-1,	-1,	-1,	-1,	-1,	14,	-1,	-1,	-1,	-1,	-1,	-1,	-1,	-1,	29,	-1,	10,	-1,	-1,	-1,	-1,	-1,	-1,	36,	18,	24,	33,	19,	-1,	-1|
-1,	29,	-1,	-1,	-1,	-1,	-1,	-1,	-1,	34,	5,	-1,	-1,	-1,	-1,	-1,	-1,	-1,	1,	-1,	7,	-1,	-1,	-1,	24,	-1,	-1,	-1,	-1,	20,	-1,	27,	-1,	-1,	14,	-1|
-1,	6,	-1,	34,	-1,	23,	-1,	-1,	18,	24,	27,	10,	1,	-1,	-1,	29,	-1,	17,	11,	-1,	-1,	-1,	-1,	-1,	-1,	33,	-1,	-1,	-1,	7,	22,	-1,	-1,	-1,	32,	-1|
15,	-1,	-1,	-1,	-1,	-1,	-1,	6,	-1,	-1,	-1,	23,	-1,	-1,	-1,	-1,	31,	-1,	-1,	-1,	18,	-1,	-1,	-1,	-1,	-1,	27,	-1,	-1,	-1,	10,	-1,	-1,	1,	-1,	-1|
-1,	-1,	13,	-1,	-1,	-1,	-1,	-1,	-1,	-1,	-1,	33,	24,	-1,	27,	-1,	-1,	-1,	-1,	-1,	34,	-1,	-1,	22,	-1,	-1,	-1,	-1,	18,	-1,	-1,	12,	-1,	-1,	-1,	-1|
-1,	-1,	-1,	-1,	-1,	-1,	31,	-1,	-1,	-1,	3,	-1,	-1,	-1,	-1,	-1,	21,	-1,	-1,	-1,	9,	-1,	-1,	16,	-1,	20,	-1,	15,	-1,	-1,	14,	18,	-1,	27,	-1,	7|
-1,	-1,	-1,	35,	-1,	-1,	5,	-1,	7,	-1,	-1,	1,	-1,	-1,	-1,	16,	10,	15,	-1,	-1,	-1,	-1,	-1,	-1,	-1,	-1,	-1,	-1,	-1,	29,	-1,	-1,	-1,	20,	-1,	23|
-1,	20,	-1,	-1,	-1,	-1,	2,	-1,	-1,	28,	-1,	-1,	-1,	-1,	-1,	23,	-1,	14,	-1,	10,	-1,	-1,	-1,	-1,	-1,	-1,	26,	-1,	4,	35,	-1,	-1,	-1,	-1,	-1,	-1|
-1,	-1,	30,	-1,	11,	-1,	24,	-1,	-1,	-1,	-1,	25,	-1,	-1,	-1,	-1,	32,	-1,	-1,	4,	-1,	-1,	21,	-1,	27,	-1,	-1,	23,	-1,	-1,	-1,	-1,	-1,	-1,	-1,	-1|
14,	-1,	-1,	13,	-1,	-1,	-1,	-1,	-1,	21,	17,	-1,	-1,	-1,	-1,	22,	-1,	26,	2,	-1,	-1,	-1,	-1,	8,	3,	6,	-1,	-1,	-1,	10,	31,	34,	-1,	-1,	-1,	-1|
-1,	21,	-1,	27,	-1,	24,	-1,	-1,	-1,	-1,	23,	-1,	-1,	-1,	-1,	-1,	-1,	-1,	-1,	-1,	12,	-1,	7,	-1,	-1,	16,	-1,	25,	1,	-1,	-1,	-1,	2,	-1,	-1,	-1|];
